
Gurobi 8.0.1 (linux64, Python) logging started Thu Mar 21 00:46:49 2019

Academic license - for non-commercial use only

Gurobi 8.0.1 (linux64, Python) logging started Thu Mar 21 00:47:19 2019

Academic license - for non-commercial use only

Gurobi 8.0.1 (linux64, Python) logging started Thu Mar 21 00:48:24 2019

Academic license - for non-commercial use only

Gurobi 8.0.1 (linux64, Python) logging started Thu Mar 21 00:49:28 2019

Academic license - for non-commercial use only

Gurobi 8.0.1 (linux64, Python) logging started Thu Mar 21 00:50:41 2019

Academic license - for non-commercial use only
